<?xml version = "1.0" standalone="yes"?>
<!-- This file has been generated by DOcplex version 2.23.222  -->
<CPLEXSolution version="1.0">
 <header
   problemName="CVRP"
   objectiveValue="18390.6"
  />
 <variables>
  <variable name="x_0_3" index="2" value="1.00000"/>
  <variable name="x_0_5" index="4" value="1.00000"/>
  <variable name="x_0_6" index="5" value="1.00000"/>
  <variable name="x_0_8" index="7" value="1.00000"/>
  <variable name="x_0_9" index="8" value="1.00000"/>
  <variable name="x_0_10" index="9" value="1.00000"/>
  <variable name="x_0_11" index="10" value="1.00000"/>
  <variable name="x_0_14" index="13" value="1.00000"/>
  <variable name="x_0_16" index="15" value="1.00000"/>
  <variable name="x_0_18" index="17" value="1.00000"/>
  <variable name="x_0_19" index="18" value="1.00000"/>
  <variable name="x_0_20" index="19" value="1.00000"/>
  <variable name="x_0_22" index="21" value="1.00000"/>
  <variable name="x_0_23" index="22" value="1.00000"/>
  <variable name="x_0_24" index="23" value="1.00000"/>
  <variable name="x_0_25" index="24" value="1.00000"/>
  <variable name="x_0_29" index="28" value="1.00000"/>
  <variable name="x_1_0" index="29" value="1.00000"/>
  <variable name="x_2_0" index="58" value="1.00000"/>
  <variable name="x_3_21" index="107" value="1.00000"/>
  <variable name="x_4_0" index="116" value="1.00000"/>
  <variable name="x_5_27" index="171" value="1.00000"/>
  <variable name="x_6_13" index="186" value="1.00000"/>
  <variable name="x_7_0" index="203" value="1.00000"/>
  <variable name="x_8_15" index="246" value="1.00000"/>
  <variable name="x_9_12" index="272" value="1.00000"/>
  <variable name="x_10_1" index="291" value="1.00000"/>
  <variable name="x_11_0" index="319" value="1.00000"/>
  <variable name="x_12_17" index="364" value="1.00000"/>
  <variable name="x_13_26" index="402" value="1.00000"/>
  <variable name="x_14_0" index="406" value="1.00000"/>
  <variable name="x_15_0" index="435" value="1.00000"/>
  <variable name="x_16_0" index="464" value="1.00000"/>
  <variable name="x_17_0" index="493" value="1.00000"/>
  <variable name="x_18_0" index="522" value="1.00000"/>
  <variable name="x_19_7" index="558" value="1.00000"/>
  <variable name="x_20_0" index="580" value="1.00000"/>
  <variable name="x_21_0" index="609" value="1.00000"/>
  <variable name="x_22_0" index="638" value="1.00000"/>
  <variable name="x_23_2" index="669" value="1.00000"/>
  <variable name="x_24_0" index="696" value="1.00000"/>
  <variable name="x_25_28" index="752" value="1.00000"/>
  <variable name="x_26_4" index="758" value="1.00000"/>
  <variable name="x_27_0" index="783" value="1.00000"/>
  <variable name="x_28_0" index="812" value="1.00000"/>
  <variable name="x_29_0" index="841" value="1.00000"/>
  <variable name="u_1" index="870" value="78.00000"/>
  <variable name="u_2" index="871" value="73.00000"/>
  <variable name="u_3" index="872" value="37.00000"/>
  <variable name="u_4" index="873" value="78.00000"/>
  <variable name="u_5" index="874" value="37.00000"/>
  <variable name="u_6" index="875" value="1.00000"/>
  <variable name="u_7" index="876" value="78.00000"/>
  <variable name="u_8" index="877" value="19.00000"/>
  <variable name="u_9" index="878" value="20.00000"/>
  <variable name="u_10" index="879" value="53.00000"/>
  <variable name="u_11" index="880" value="72.00000"/>
  <variable name="u_12" index="881" value="54.00000"/>
  <variable name="u_13" index="882" value="74.00000"/>
  <variable name="u_14" index="883" value="77.00000"/>
  <variable name="u_15" index="884" value="78.00000"/>
  <variable name="u_16" index="885" value="61.00000"/>
  <variable name="u_17" index="886" value="78.00000"/>
  <variable name="u_18" index="887" value="72.00000"/>
  <variable name="u_19" index="888" value="50.00000"/>
  <variable name="u_20" index="889" value="61.00000"/>
  <variable name="u_21" index="890" value="78.00000"/>
  <variable name="u_22" index="891" value="71.00000"/>
  <variable name="u_23" index="892" value="63.00000"/>
  <variable name="u_24" index="893" value="78.00000"/>
  <variable name="u_25" index="894" value="45.00000"/>
  <variable name="u_26" index="895" value="76.00000"/>
  <variable name="u_27" index="896" value="77.00000"/>
  <variable name="u_28" index="897" value="77.00000"/>
  <variable name="u_29" index="898" value="72.00000"/>
 </variables>
</CPLEXSolution>
